3 
4  44 58 
5  16 38 54 
6  08 23 38 53 
7  08 23 38 53 
8  08 23 38 53 
9  08 23 38 53 
10  08 23 38 53 
11  08 23 38 53 
12  08 23 38 53 
13  09 24 39 54 
14  09 24 39 54 
15  09 24 39 54 
16  09 24 39 54 
17  09 24 39 54 
18  09 24 39 54 
19  08 23 38 53 
20  08 23 38 53 
21  08 23 38 53 
22  08 23 38 
23  03 25 
0 
